702 5
10 10 10 10 10 

0 0 0 0 0 0 5 2 54 66 118 170 
0 0 0 0 0 0 1 3 
5 1 1 3 1 1 1 4 
10 5 4 5 5 3 1 5 
4 9 7 10 4 7 2 7 6 
7 2 5 3 5 2 1 8 
4 6 4 4 4 3 1 8 
2 7 4 6 6 5 2 10 9 
3 6 8 8 5 5 1 11 
2 5 8 6 2 6 1 11 
9 7 6 4 3 3 1 12 
10 7 4 6 10 3 1 13 
1 5 5 9 4 5 1 14 
8 6 4 3 4 7 1 15 
10 5 8 1 6 8 2 17 16 
5 5 3 6 4 2 2 20 18 
7 7 3 3 6 6 1 18 
3 2 6 4 5 6 1 19 
3 2 4 9 6 6 1 21 
4 4 2 5 2 6 1 21 
4 6 6 5 5 8 2 24 22 
1 4 6 5 4 5 2 25 23 
9 4 7 5 5 7 2 28 26 
1 6 1 10 9 5 2 28 26 
6 5 4 5 2 8 2 28 27 
10 6 2 2 5 4 1 27 
2 6 7 3 3 5 2 30 29 
1 5 10 7 7 2 2 30 29 
6 6 8 7 3 5 2 33 31 
5 9 7 5 3 6 1 31 
1 4 3 2 7 7 1 32 
1 5 5 6 4 7 1 34 
3 3 3 2 4 2 1 34 
8 5 6 2 3 10 1 35 
1 4 3 3 8 5 2 38 36 
5 4 4 5 2 5 1 37 
5 4 7 4 5 4 2 41 39 
3 4 6 4 6 4 2 41 40 
3 3 5 10 5 6 1 40 
6 5 6 2 4 3 1 42 
6 8 5 5 6 3 1 42 
2 3 6 10 8 4 2 45 43 
5 3 8 2 4 6 1 44 
7 9 6 3 9 6 2 46 650 
2 2 4 5 6 5 1 46 
3 6 2 5 5 5 1 47 
5 8 5 7 5 5 1 48 
2 7 3 6 7 8 1 49 
10 2 2 5 8 4 2 52 50 
7 6 9 4 4 3 1 51 
2 4 2 4 4 5 1 53 
2 3 6 5 8 4 1 53 
0 0 0 0 0 0 1 702 
0 0 0 0 0 0 1 55 
4 0 4 0 0 0 1 56 
1 0 4 0 0 0 2 60 57 
1 0 5 0 0 0 2 61 58 
1 0 4 0 0 0 1 59 
7 0 8 0 0 0 2 64 62 
7 0 4 0 0 0 2 64 62 
1 0 4 0 0 0 2 64 63 
2 0 3 0 0 0 2 63 257 
4 0 10 0 0 0 1 65 
6 0 4 0 0 0 1 65 
0 0 0 0 0 0 5 222 264 306 348 360 
0 0 0 0 0 0 1 67 
5 2 1 1 1 1 2 72 68 
6 4 4 8 3 4 1 69 
3 5 5 6 4 3 1 70 
9 7 5 3 5 8 1 71 
6 6 7 5 6 9 2 76 73 
1 8 2 6 5 9 1 73 
10 9 6 3 5 2 1 74 
6 5 6 8 8 2 1 75 
10 4 7 8 4 8 1 77 
9 4 8 4 4 4 1 77 
7 4 6 1 2 2 1 78 
6 10 5 7 8 5 2 81 79 
4 5 8 6 7 7 1 80 
7 3 5 4 4 8 2 86 82 
7 6 5 4 4 9 1 82 
4 2 5 4 2 6 1 83 
2 9 3 7 7 8 1 84 
3 4 4 8 6 6 3 91 90 85 
7 3 3 6 4 6 2 96 87 
3 9 7 5 6 7 2 96 89 
10 5 3 3 7 3 1 88 
5 4 5 3 8 4 1 89 
2 4 3 5 3 2 3 94 92 420 
3 4 5 3 4 4 2 96 93 
4 7 7 2 3 4 1 92 
8 4 9 8 6 5 1 93 
3 5 5 6 5 6 1 95 
8 4 7 2 6 3 2 100 98 
5 3 5 6 3 3 1 97 
1 4 2 6 5 5 1 97 
5 4 8 5 6 3 1 98 
3 6 4 4 8 4 2 101 99 
5 6 4 4 10 4 2 106 102 
10 6 10 6 5 5 2 106 103 
5 7 2 4 4 7 2 106 104 
5 6 2 9 2 7 1 103 
6 3 4 4 2 4 1 104 
10 3 7 3 6 4 1 105 
9 5 6 5 5 6 2 113 107 
8 5 6 7 3 3 2 113 109 
9 5 5 4 4 3 1 108 
5 4 5 7 7 3 1 109 
1 5 7 3 7 7 1 110 
8 6 5 5 3 9 1 111 
3 3 8 6 6 5 1 112 
2 6 3 5 7 2 2 116 114 
3 5 2 3 6 3 2 116 114 
5 4 1 3 3 5 1 115 
5 3 3 7 6 3 1 117 
1 5 5 8 5 10 1 117 
0 0 0 0 0 0 1 702 
0 0 0 0 0 0 1 119 
9 1 2 3 1 1 1 120 
7 3 8 4 5 4 1 121 
10 4 6 2 7 6 2 123 122 
2 7 5 8 5 3 1 124 
8 9 4 3 5 5 1 124 
9 8 4 10 2 6 2 126 125 
8 5 4 6 5 2 1 127 
1 4 3 7 7 7 1 127 
1 7 7 3 4 1 1 128 
1 4 8 4 5 9 2 129 682 
7 7 7 6 5 9 1 130 
3 7 4 2 3 7 1 131 
2 3 3 4 7 3 2 133 132 
6 5 4 7 7 6 2 136 134 
4 7 6 8 4 7 1 134 
9 6 2 5 4 6 1 135 
1 4 5 6 5 6 1 137 
10 3 4 3 8 5 1 137 
6 1 5 6 7 5 2 141 138 
4 6 3 4 5 6 2 140 139 
9 5 5 6 6 2 2 144 142 
8 6 6 3 8 8 2 144 143 
3 2 2 4 5 6 2 144 143 
5 6 5 6 6 7 1 143 
3 7 5 5 4 8 2 146 145 
2 4 5 5 4 7 2 146 145 
2 2 8 8 5 3 2 149 148 
2 5 7 4 7 4 1 147 
5 4 7 5 6 5 1 148 
5 5 7 3 5 5 1 150 
4 4 6 3 4 4 1 150 
3 5 4 7 8 7 1 151 
3 7 5 5 1 7 2 154 152 
7 8 5 6 6 2 1 153 
9 6 2 7 8 5 2 157 155 
7 9 2 5 5 3 2 157 156 
10 7 2 6 5 5 1 156 
6 2 5 2 5 4 1 158 
9 4 10 3 9 1 1 158 
3 5 4 4 5 7 2 161 159 
6 7 5 1 6 9 1 160 
10 2 8 6 4 3 1 162 
9 7 8 3 3 6 1 162 
7 3 3 6 6 5 1 163 
5 4 5 6 5 3 1 164 
8 4 6 3 1 1 1 165 
6 9 5 8 7 3 2 168 166 
3 2 7 6 2 4 1 167 
8 5 3 5 2 5 1 169 
7 3 4 8 1 7 1 169 
0 0 0 0 0 0 1 702 
0 0 0 0 0 0 1 171 
8 4 2 1 2 1 1 172 
10 3 4 6 6 6 1 173 
4 5 2 3 7 4 2 175 174 
2 4 5 6 7 2 1 176 
9 5 4 4 4 6 1 176 
1 3 5 4 6 6 2 178 177 
5 10 2 7 4 9 1 179 
2 5 5 3 4 8 1 179 
6 5 7 4 4 5 1 180 
1 5 7 4 4 6 1 181 
2 10 4 6 4 2 1 182 
7 5 4 6 5 4 1 183 
4 5 5 6 3 10 2 185 184 
2 3 5 10 5 7 2 188 186 
2 3 4 8 9 5 1 186 
6 7 3 4 5 7 1 187 
9 2 10 7 6 5 1 189 
9 2 7 4 6 5 1 189 
3 7 5 7 6 9 2 192 190 
2 10 8 2 4 4 2 193 191 
2 4 2 8 4 3 2 196 194 
10 10 4 5 4 4 2 196 194 
6 6 5 5 5 4 2 196 195 
4 4 3 4 5 10 1 195 
8 1 5 6 3 5 2 198 197 
8 3 3 3 4 4 3 198 197 344 
1 6 2 5 7 7 2 201 199 
7 4 7 7 4 4 1 199 
8 6 7 3 5 7 1 200 
9 1 5 6 6 4 1 202 
2 9 6 4 8 4 1 202 
8 5 6 5 6 6 1 203 
4 5 7 3 7 4 2 206 204 
7 3 1 5 4 5 1 205 
2 5 7 7 10 3 2 209 207 
5 5 9 3 4 4 2 209 208 
7 6 8 7 3 4 1 208 
1 7 5 1 4 4 1 210 
10 6 7 3 9 5 1 210 
10 4 3 7 6 4 2 213 211 
9 4 4 5 4 4 1 212 
3 1 5 6 3 1 1 214 
6 6 3 3 6 3 1 214 
1 4 5 7 4 5 1 215 
10 4 4 6 4 5 1 216 
7 8 4 4 3 5 1 217 
9 6 8 5 4 9 1 218 
8 7 6 4 3 3 2 220 219 
6 2 7 5 4 5 1 221 
3 5 4 6 6 4 1 221 
0 0 0 0 0 0 1 702 
0 0 0 0 0 0 3 223 261 262 
8 1 1 3 0 1 1 224 
5 9 9 6 0 1 1 225 
10 7 2 10 0 2 3 260 259 226 
6 2 3 7 0 2 1 227 
8 2 4 1 0 8 1 228 
2 4 4 5 0 6 1 229 
9 8 6 5 0 7 1 230 
2 5 3 4 0 3 1 231 
8 6 3 6 0 5 1 232 
1 9 3 5 0 4 3 258 257 233 
3 3 3 8 0 2 2 256 234 
6 4 5 5 0 5 1 235 
1 5 3 4 0 3 1 236 
2 4 7 6 0 5 1 237 
2 7 5 3 0 10 2 255 238 
9 4 4 5 0 6 2 254 239 
4 3 4 2 0 4 2 253 240 
3 9 8 4 0 5 1 241 
9 8 9 7 0 5 1 242 
4 3 5 3 0 6 1 243 
2 6 3 7 0 3 1 244 
4 4 8 6 0 5 1 245 
7 5 6 3 0 7 1 246 
5 4 8 4 0 2 1 247 
10 8 4 3 0 9 1 248 
2 2 3 4 0 5 1 249 
4 6 5 8 0 7 1 250 
6 6 6 5 0 5 2 251 387 
3 7 7 4 0 9 1 252 
9 5 9 5 0 6 1 263 
7 4 4 5 0 5 1 263 
5 4 6 8 0 3 1 263 
1 2 3 3 0 6 1 263 
3 6 6 5 0 8 1 263 
10 3 4 4 0 5 1 263 
8 3 7 6 0 2 1 263 
1 5 6 4 0 5 1 263 
6 5 5 3 0 5 1 263 
6 7 2 8 0 9 1 263 
10 5 7 6 0 4 1 263 
0 0 0 0 0 0 1 702 
0 0 0 0 0 0 2 265 266 
10 0 1 4 1 1 2 269 267 
6 0 3 7 6 6 1 267 
9 0 4 2 9 6 1 268 
9 0 7 4 4 7 1 270 
6 0 6 6 3 4 1 270 
7 0 7 5 4 5 1 271 
2 0 3 1 4 7 1 272 
8 0 5 2 5 2 1 273 
5 0 4 6 7 3 2 276 274 
6 0 4 10 2 5 1 275 
10 0 3 4 5 6 1 277 
4 0 6 1 5 5 1 277 
1 0 3 10 10 4 1 278 
3 0 6 5 4 6 1 279 
10 0 6 2 1 7 1 280 
10 0 6 6 5 5 1 281 
10 0 4 7 4 4 3 284 283 282 
7 0 8 4 2 2 2 288 286 
2 0 3 4 7 7 1 285 
8 0 5 5 5 6 2 288 287 
5 0 3 6 4 7 1 286 
1 0 5 10 7 5 1 287 
4 0 4 4 5 6 1 289 
4 0 5 4 7 3 1 289 
10 0 4 3 4 6 2 292 290 
6 0 4 7 4 4 1 291 
3 0 9 5 6 3 2 294 293 
5 0 4 5 7 5 2 294 293 
1 0 8 3 6 5 2 297 295 
8 0 4 5 3 5 2 297 296 
8 0 7 2 6 3 1 296 
3 0 3 9 10 7 2 300 298 
1 0 9 6 4 4 3 300 299 423 
9 0 2 5 6 3 1 299 
2 0 5 4 5 5 1 301 
3 0 6 5 4 8 1 301 
7 0 4 6 5 5 1 302 
6 0 6 5 4 7 1 303 
3 0 8 8 6 6 1 304 
10 0 6 3 4 5 1 305 
0 0 0 0 0 0 1 702 
0 0 0 0 0 0 3 307 315 321 
10 1 1 1 0 1 1 308 
4 4 7 6 0 7 1 309 
3 3 5 7 0 5 1 310 
10 5 5 9 0 4 1 311 
10 4 6 10 0 5 2 320 312 
6 5 9 6 0 5 1 313 
3 2 3 7 0 6 2 314 468 
6 4 5 5 0 4 1 316 
1 7 6 3 0 4 1 316 
9 10 2 6 0 5 1 317 
1 5 6 7 0 3 1 318 
2 9 6 5 0 4 1 319 
2 7 2 7 0 5 2 331 322 
1 6 7 6 0 3 2 331 322 
2 7 9 3 0 5 2 331 322 
5 1 6 10 0 8 2 346 323 
3 4 8 4 0 5 2 336 324 
3 8 3 6 0 3 2 345 325 
10 3 3 6 0 9 1 326 
10 4 4 6 0 3 1 327 
8 5 4 4 0 3 1 328 
7 4 6 7 0 9 2 342 329 
5 9 2 6 0 3 3 344 343 330 
9 8 5 7 0 5 1 332 
5 4 7 3 0 4 2 342 334 
3 6 7 3 0 4 1 333 
3 4 3 2 0 5 1 334 
10 5 3 2 0 6 1 335 
9 8 4 6 0 6 1 337 
6 5 4 2 0 8 1 337 
8 3 7 2 0 4 1 338 
8 3 7 4 0 7 1 339 
2 3 5 4 0 4 1 340 
10 7 5 3 0 4 1 341 
1 6 3 5 0 7 1 347 
5 4 10 4 0 6 1 347 
8 2 5 5 0 4 1 347 
3 2 6 4 0 8 1 347 
1 7 2 2 0 5 1 347 
9 6 2 5 0 4 1 347 
0 0 0 0 0 0 1 702 
0 0 0 0 0 0 1 349 
2 0 0 0 0 1 2 351 350 
2 0 0 0 0 6 2 358 352 
1 0 0 0 0 6 3 358 352 543 
5 0 0 0 0 7 1 353 
6 0 0 0 0 6 1 354 
5 0 0 0 0 6 1 355 
9 0 0 0 0 3 2 357 356 
9 0 0 0 0 5 1 359 
6 0 0 0 0 4 1 359 
2 0 0 0 0 6 1 359 
0 0 0 0 0 0 5 402 434 466 478 510 
0 0 0 0 0 0 3 361 367 369 
8 1 3 2 1 0 1 362 
7 8 5 6 5 0 1 363 
3 3 3 5 4 0 1 364 
4 3 5 6 6 0 1 365 
2 4 8 4 5 0 1 366 
7 6 6 5 7 0 2 374 368 
6 5 4 10 4 0 2 374 370 
7 5 6 6 2 0 2 370 696 
3 7 3 9 5 0 2 374 372 
8 6 3 4 3 0 1 371 
7 5 10 5 7 0 1 372 
1 5 9 4 4 0 1 373 
7 4 2 5 6 0 1 375 
8 1 4 4 6 0 1 375 
7 4 8 6 3 0 1 376 
9 3 4 2 6 0 2 384 377 
2 7 4 4 6 0 2 388 378 
10 6 6 3 4 0 2 399 379 
10 5 4 4 6 0 1 380 
2 6 3 8 7 0 1 381 
5 3 4 4 5 0 1 382 
3 8 6 5 10 0 1 383 
9 3 8 3 2 0 3 398 397 385 
9 2 5 7 5 0 4 400 397 396 386 
5 6 10 3 4 0 2 396 386 
9 7 5 9 1 0 1 387 
5 3 2 8 6 0 1 389 
3 7 3 7 1 0 1 389 
4 4 4 3 6 0 1 390 
7 4 4 5 7 0 1 391 
9 5 7 5 8 0 1 392 
1 10 4 3 4 0 1 393 
5 5 3 4 5 0 1 394 
9 4 4 6 6 0 1 395 
7 6 6 3 7 0 1 401 
1 6 5 6 4 0 1 401 
4 9 5 6 6 0 1 401 
3 4 6 2 4 0 1 401 
5 6 4 4 4 0 1 401 
10 4 5 5 8 0 1 401 
0 0 0 0 0 0 1 702 
0 0 0 0 0 0 2 403 424 
10 0 1 1 1 0 1 404 
6 0 5 7 3 0 1 405 
1 0 5 6 3 0 1 406 
5 0 7 5 4 0 1 407 
10 0 4 5 8 0 2 416 408 
1 0 5 7 6 0 1 409 
1 0 6 8 4 0 1 410 
2 0 6 5 4 0 3 419 413 411 
4 0 5 6 7 0 2 415 412 
5 0 8 6 10 0 3 421 418 414 
8 0 9 4 1 0 2 421 417 
5 0 4 5 4 0 1 417 
3 0 5 6 5 0 1 417 
6 0 7 3 2 0 2 417 473 
8 0 3 4 6 0 1 420 
6 0 4 9 6 0 1 420 
7 0 3 7 8 0 1 421 
1 0 4 7 6 0 1 422 
5 0 3 3 3 0 1 422 
2 0 6 4 8 0 1 423 
8 0 4 4 3 0 2 432 425 
1 0 1 6 6 0 2 432 425 
10 0 7 4 7 0 1 426 
4 0 6 7 2 0 1 427 
7 0 6 2 6 0 1 428 
6 0 6 2 4 0 1 429 
6 0 4 5 4 0 1 430 
3 0 2 3 6 0 1 431 
4 0 7 5 8 0 1 433 
2 0 7 4 5 0 1 433 
0 0 0 0 0 0 1 702 
0 0 0 0 0 0 2 435 464 
8 2 0 3 1 0 1 436 
2 3 0 5 5 0 1 437 
5 5 0 7 4 0 1 438 
1 7 0 9 4 0 2 439 652 
5 1 0 2 3 0 2 463 440 
10 4 0 4 4 0 1 441 
1 6 0 6 4 0 1 442 
1 2 0 3 4 0 5 462 458 452 446 443 
2 8 0 3 2 0 1 444 
10 2 0 6 3 0 2 450 445 
9 6 0 5 9 0 1 447 
5 5 0 5 3 0 2 450 449 
4 3 0 4 6 0 1 448 
7 5 0 5 3 0 1 449 
5 4 0 7 9 0 1 451 
10 4 0 4 7 0 1 451 
1 9 0 4 5 0 2 461 453 
5 9 0 4 5 0 2 461 454 
6 6 0 6 7 0 1 454 
9 4 0 10 1 0 1 455 
1 7 0 3 4 0 1 456 
3 3 0 4 1 0 1 457 
2 2 0 5 8 0 1 459 
9 5 0 5 7 0 1 459 
2 10 0 4 5 0 1 460 
5 6 0 6 8 0 1 465 
9 4 0 3 8 0 1 465 
4 8 0 4 5 0 1 465 
2 4 0 9 6 0 1 465 
8 6 0 5 9 0 1 465 
0 0 0 0 0 0 1 702 
0 0 0 0 0 0 1 467 
1 0 0 0 0 1 1 468 
6 0 0 0 0 3 1 469 
5 0 0 0 0 9 3 473 471 470 
1 0 0 0 0 6 3 474 472 543 
10 0 0 0 0 5 2 475 474 
10 0 0 0 0 5 1 475 
3 0 0 0 0 5 1 474 
6 0 0 0 0 4 1 476 
1 0 0 0 0 3 1 476 
9 0 0 0 0 9 1 477 
0 0 0 0 0 0 5 542 554 576 598 620 
0 0 0 0 0 0 2 479 483 
7 1 2 0 0 2 1 480 
10 4 3 0 0 5 1 481 
10 6 6 0 0 1 1 482 
3 7 4 0 0 4 1 484 
10 10 6 0 0 9 1 484 
3 2 8 0 0 3 2 489 485 
9 6 2 0 0 4 1 486 
8 5 2 0 0 10 1 487 
1 5 4 0 0 6 3 492 491 488 
1 6 8 0 0 4 2 493 490 
8 4 5 0 0 5 2 493 490 
5 2 6 0 0 2 3 497 495 494 
8 6 3 0 0 6 2 495 494 
5 5 5 0 0 7 2 495 494 
2 5 3 0 0 6 1 494 
5 5 8 0 0 5 1 496 
1 5 8 0 0 3 1 496 
2 3 3 0 0 5 1 498 
8 3 2 0 0 10 1 498 
8 9 4 0 0 4 1 499 
4 7 3 0 0 2 1 500 
5 5 5 0 0 5 2 504 501 
7 7 7 0 0 9 1 502 
3 4 7 0 0 4 1 503 
8 6 7 0 0 5 1 505 
2 5 6 0 0 3 2 505 566 
6 2 10 0 0 6 1 506 
10 5 5 0 0 6 1 507 
2 4 4 0 0 2 1 508 
4 6 4 0 0 7 1 509 
0 0 0 0 0 0 1 702 
0 0 0 0 0 0 2 511 540 
4 0 1 2 0 1 1 512 
7 0 9 3 0 6 1 513 
2 0 4 5 0 10 1 514 
10 0 6 6 0 3 1 515 
10 0 2 5 0 3 3 539 538 516 
5 0 4 8 0 3 4 537 536 535 517 
4 0 5 3 0 7 2 534 518 
7 0 5 4 0 9 1 519 
4 0 8 6 0 4 1 520 
7 0 5 8 0 5 1 521 
4 0 2 4 0 5 1 522 
10 0 5 3 0 2 3 533 523 545 
2 0 2 4 0 2 1 524 
2 0 8 7 0 6 1 525 
6 0 5 6 0 4 1 526 
8 0 4 2 0 4 1 527 
1 0 7 4 0 5 1 528 
6 0 5 3 0 5 1 529 
6 0 5 5 0 4 1 530 
8 0 5 7 0 9 1 531 
4 0 8 9 0 6 1 532 
4 0 5 3 0 3 1 541 
10 0 4 5 0 4 1 541 
6 0 3 4 0 5 1 541 
9 0 5 6 0 7 1 541 
7 0 7 5 0 4 1 541 
6 0 7 5 0 6 1 541 
7 0 5 3 0 5 1 541 
6 0 3 5 0 10 1 541 
8 0 6 10 0 3 1 541 
0 0 0 0 0 0 1 702 
0 0 0 0 0 0 2 543 544 
9 0 0 0 1 0 2 547 545 
7 0 0 0 6 0 2 547 545 
7 0 0 0 6 0 1 546 
2 0 0 0 6 0 2 550 548 
4 0 0 0 3 0 2 548 601 
5 0 0 0 5 0 1 549 
5 0 0 0 8 0 1 551 
3 0 0 0 4 0 1 551 
2 0 0 0 6 0 1 552 
5 0 0 0 5 0 1 553 
0 0 0 0 0 0 5 642 654 666 678 690 
0 0 0 0 0 0 2 555 556 
6 0 0 1 1 0 2 562 558 
9 0 0 6 7 0 1 557 
6 0 0 5 5 0 2 562 560 
3 0 0 6 4 0 1 559 
1 0 0 7 4 0 1 560 
7 0 0 5 7 0 1 561 
1 0 0 3 7 0 1 563 
7 0 0 6 3 0 1 563 
2 0 0 3 2 0 2 567 564 
5 0 0 9 4 0 1 565 
5 0 0 3 4 0 1 566 
2 0 0 5 7 0 1 568 
7 0 0 5 3 0 2 568 591 
7 0 0 2 7 0 2 574 569 
8 0 0 7 6 0 1 570 
10 0 0 9 8 0 1 571 
4 0 0 5 6 0 1 572 
6 0 0 3 6 0 1 573 
7 0 0 3 4 0 1 575 
7 0 0 7 5 0 1 575 
0 0 0 0 0 0 1 702 
0 0 0 0 0 0 5 577 593 594 595 596 
6 0 0 1 0 1 1 578 
7 0 0 3 0 4 1 579 
5 0 0 4 0 6 1 580 
7 0 0 4 0 4 1 581 
6 0 0 6 0 6 2 592 582 
1 0 0 3 0 6 1 583 
9 0 0 4 0 5 1 584 
6 0 0 7 0 5 1 585 
6 0 0 5 0 6 2 586 651 
3 0 0 7 0 5 1 587 
1 0 0 7 0 5 1 588 
2 0 0 5 0 5 1 589 
10 0 0 5 0 4 1 590 
6 0 0 8 0 2 1 591 
2 0 0 4 0 4 1 597 
1 0 0 3 0 7 1 597 
9 0 0 6 0 5 1 597 
9 0 0 5 0 7 1 597 
6 0 0 7 0 8 1 597 
4 0 0 6 0 5 1 597 
0 0 0 0 0 0 1 702 
0 0 0 0 0 0 4 599 607 618 661 
7 0 0 1 0 1 2 617 600 
8 0 0 4 0 6 2 609 601 
3 0 0 6 0 4 1 602 
2 0 0 8 0 2 1 603 
4 0 0 3 0 8 1 604 
2 0 0 7 0 6 1 605 
2 0 0 9 0 6 1 606 
8 0 0 3 0 5 1 608 
9 0 0 4 0 3 1 608 
7 0 0 3 0 8 2 616 610 
2 0 0 7 0 5 2 616 610 
7 0 0 4 0 4 1 611 
8 0 0 7 0 3 1 612 
8 0 0 4 0 9 1 613 
8 0 0 4 0 6 1 614 
5 0 0 5 0 6 1 615 
9 0 0 4 0 7 1 619 
6 0 0 8 0 4 1 619 
1 0 0 5 0 4 1 619 
1 0 0 4 0 3 1 619 
0 0 0 0 0 0 1 702 
0 0 0 0 0 0 3 621 627 630 
1 0 0 2 1 0 1 622 
9 0 0 6 4 0 1 623 
10 0 0 6 4 0 1 624 
10 0 0 10 4 0 1 625 
2 0 0 7 4 0 2 637 626 
7 0 0 4 4 0 1 628 
8 0 0 4 3 0 1 628 
3 0 0 2 3 0 1 629 
7 0 0 4 8 0 2 640 631 
9 0 0 7 6 0 2 635 633 
2 0 0 7 9 0 1 632 
4 0 0 3 7 0 2 633 672 
5 0 0 4 7 0 1 634 
7 0 0 6 6 0 1 636 
3 0 0 5 5 0 1 636 
6 0 0 1 7 0 1 638 
3 0 0 4 6 0 1 638 
7 0 0 7 5 0 1 639 
8 0 0 7 3 0 1 641 
7 0 0 4 4 0 1 641 
0 0 0 0 0 0 1 702 
0 0 0 0 0 0 2 643 645 
1 0 0 1 0 0 2 646 644 
9 0 0 4 0 0 1 647 
3 0 0 5 0 0 1 646 
8 0 0 10 0 0 1 648 
4 0 0 4 0 0 1 648 
9 0 0 4 0 0 3 651 649 682 
5 0 0 7 0 0 1 650 
3 0 0 6 0 0 1 652 
8 0 0 6 0 0 1 652 
10 0 0 3 0 0 1 653 
0 0 0 0 0 0 1 702 
0 0 0 0 0 0 2 655 656 
7 0 1 0 0 0 2 660 657 
3 0 7 0 0 0 2 660 657 
9 0 9 0 0 0 1 658 
1 0 3 0 0 0 2 662 659 
4 0 5 0 0 0 1 661 
4 0 7 0 0 0 1 661 
5 0 5 0 0 0 1 663 
3 0 3 0 0 0 2 663 683 
3 0 4 0 0 0 1 664 
7 0 6 0 0 0 1 665 
0 0 0 0 0 0 1 702 
0 0 0 0 0 0 2 667 668 
10 0 0 1 0 0 3 675 669 699 
2 0 0 6 0 0 2 675 671 
8 0 0 4 0 0 1 670 
8 0 0 6 0 0 1 672 
6 0 0 8 0 0 1 672 
3 0 0 5 0 0 1 673 
7 0 0 4 0 0 1 674 
10 0 0 4 0 0 1 676 
7 0 0 8 0 0 1 676 
5 0 0 4 0 0 1 677 
0 0 0 0 0 0 1 702 
0 0 0 0 0 0 1 679 
8 0 1 0 0 0 2 681 680 
5 0 3 0 0 0 2 685 683 
6 0 6 0 0 0 1 682 
3 0 4 0 0 0 1 683 
10 0 5 0 0 0 2 684 696 
1 0 7 0 0 0 2 688 686 
2 0 5 0 0 0 1 686 
1 0 3 0 0 0 1 687 
3 0 8 0 0 0 1 689 
6 0 8 0 0 0 1 689 
0 0 0 0 0 0 1 702 
0 0 0 0 0 0 3 691 696 700 
5 0 0 0 1 0 1 692 
7 0 0 0 8 0 1 693 
4 0 0 0 5 0 2 699 694 
3 0 0 0 7 0 1 695 
1 0 0 0 5 0 1 697 
7 0 0 0 5 0 1 697 
2 0 0 0 5 0 1 698 
3 0 0 0 4 0 1 701 
6 0 0 0 3 0 1 701 
3 0 0 0 7 0 1 701 
0 0 0 0 0 0 1 702 
0 0 0 0 0 0 0 
